6 16 4 10
19 20 10 12 5 2 2 10 20 7 15 14 14 11 5 20 
15.24 12.5 10.05 8.13 8.9 12.83 7.42 3.36 15.45 0.4 1.13 6.58 5.07 5.35 7.23 1.58 
9.26 5.53 14.48 14.92 4.06 14.95 5.52 3.79 9.21 1.52 12.47 14.01 12.54 6.75 0.3 11.03 
4.38 0.58 6.47 4.86 10.62 6.31 8.3 7.71 7.69 2.49 0.17 15.19 7.79 0.4 1.87 14.93 
13.74 11.58 14.94 7.02 5.4 4.85 3.35 15.82 3.81 9.01 1.2 1.61 0.35 15.84 2.83 14.6 
8 8 8 8 8 8 8 8 8 8 8 8 8 8 8 8 
1.49 5.23 2.58 7.59 13.99 3.53 11.06 6.74 14.54 3.9 0.35 13.02 15.66 5.13 3.7 10.26 
1 1 1 1 1 1 1 1 1 1 1 1 1 1 1 1 
1 1 1 1 1 1 1 1 1 1 1 1 1 1 1 1 
1 1 1 1 1 1 1 1 1 1 1 1 1 1 1 1 
1 1 1 1 1 1 1 1 1 1 1 1 1 1 1 1 
1 1 1 1 1 1 1 1 1 1 1 1 1 1 1 1 
1 1 1 1 1 1 1 1 1 1 1 1 1 1 1 1 
0.01 0.01 0.01 0.01 0.01 0.01 0.01 0.01 0.01 0.01 0.01 0.01 0.01 0.01 0.01 0.01 
0.02 0.02 0.02 0.02 0.02 0.02 0.02 0.02 0.02 0.02 0.02 0.02 0.02 0.02 0.02 0.02 
0.03 0.03 0.03 0.03 0.03 0.03 0.03 0.03 0.03 0.03 0.03 0.03 0.03 0.03 0.03 0.03 
0.04 0.04 0.04 0.04 0.04 0.04 0.04 0.04 0.04 0.04 0.04 0.04 0.04 0.04 0.04 0.04 
0.05 0.05 0.05 0.05 0.05 0.05 0.05 0.05 0.05 0.05 0.05 0.05 0.05 0.05 0.05 0.05 
1 1 1 1 1 1 1 1 1 1 1 1 1 1 1 1 
